(set-info :origin "SVCOMP13 benchmarks generated by Arie Gurfinkel")
(set-info :status unsat)
(set-logic HORN)
(declare-fun cp-rel-entry () Bool)
(declare-fun cp-rel-bb2.i.i16.i.i () Bool)
(declare-fun cp-rel-bb1.i.i (Real Real Real Real) Bool)
(assert |cp-rel-entry|)
(assert (forall ((?A Real) (?B Real) (?C Real) (?D Real) (?E Bool) )(let (($x477623 (and |cp-rel-entry| (<= ?D 1.0) (>= ?C 0.0) (<= ?C 0.0) (>= ?B 0.0) (<= ?B 0.0) (>= ?A 0.0) (<= ?A 0.0) (= ?E true) (>= ?D 1.0))))
(=> $x477623 (|cp-rel-bb1.i.i| ?A ?B ?C ?D))))
)
(assert (forall ((?A Real) (?B Real) (?C Real) (?D Real) (?E Real) (?F Real) (?G Real) (?H Real) (?I Bool) (?J Bool) (?K Bool) (?L Bool) (?M Bool) (?N Bool) (?O Real) (?P Real) (?Q Bool) (?R Bool) (?S Bool) (?T Bool) (?U Bool) (?V Bool) (?W Real) (?X Real) (?Y Bool) (?Z Bool) (?A1 Bool) (?B1 Bool) (?C1 Bool) (?D1 Bool) (?E1 Bool) (?F1 Bool) (?G1 Bool) (?H1 Bool) (?I1 Bool) (?J1 Real) (?K1 Real) (?L1 Bool) (?M1 Bool) (?N1 Real) (?O1 Bool) (?P1 Bool) (?Q1 Bool) (?R1 Bool) (?S1 Real) (?T1 Bool) (?U1 Real) (?V1 Real) (?W1 Bool) (?X1 Bool) (?Y1 Real) (?Z1 Bool) (?A2 Bool) )(let (($x233770 (|cp-rel-bb1.i.i| ?E ?F ?G ?H)))
(let (($x276302 (or (not ?I) (and ?J ?K (not ?L)))))
(let (($x912063 (or (not ?I) ?K)))
(let (($x143756 (not ?M)))
(let (($x395414 (or $x143756 (and ?I ?N (<= ?O ?P) (>= ?O ?P)) (and ?J ?Q ?L (<= ?O ?D) (>= ?O ?D)))))
(let (($x570320 (or $x143756 (and ?N (not ?Q)) (and ?Q (not ?N)))))
(let (($x356934 (or (not ?R) (and ?M ?S (not ?T)))))
(let (($x209115 (or (not ?R) ?S)))
(let (($x298787 (not ?U)))
(let (($x32751 (or $x298787 (and ?R ?V (<= ?W ?X) (>= ?W ?X)) (and ?M ?Y ?T (<= ?W ?C) (>= ?W ?C)))))
(let (($x851349 (or $x298787 (and ?V (not ?Y)) (and ?Y (not ?V)))))
(let (($x266952 (or (not ?Z) (and ?U ?A1 ?B1))))
(let (($x480377 (or (not ?Z) ?A1)))
(let (($x854206 (or (not ?C1) (and ?U ?D1 (not ?B1)))))
(let (($x375785 (or (not ?C1) ?D1)))
(let (($x512351 (or (not ?E1) (and ?Z ?F1 (not ?G1)))))
(let (($x425273 (or (not ?E1) ?F1)))
(let (($x249549 (and ?C1 ?M1 (<= ?J1 ?N1) (>= ?J1 ?N1) (<= ?K1 ?B) (>= ?K1 ?B))))
(let (($x386438 (>= ?J1 ?O)))
(let (($x420614 (<= ?J1 ?O)))
(let (($x177759 (not ?H1)))
(let (($x536831 (or $x177759 (and ?E1 ?I1 $x420614 $x386438 (<= ?K1 ?B) (>= ?K1 ?B)) (and ?Z ?L1 ?G1 $x420614 $x386438 (<= ?K1 1.0) (>= ?K1 1.0)) $x249549)))
(let (($x466071 (or $x177759 (and ?I1 (not ?L1) (not ?M1)) (and ?L1 (not ?I1) (not ?M1)) (and ?M1 (not ?I1) (not ?L1)))))
(let (($x29850 (or (not ?O1) (and ?H1 ?P1 (not ?Q1)))))
(let (($x520422 (or (not ?O1) ?P1)))
(let (($x585828 (and ?H1 ?Q1 (<= ?E 0.0) (>= ?E 0.0) (<= ?F ?K1) (>= ?F ?K1) (<= ?G ?W) (>= ?G ?W) (<= ?H ?J1) (>= ?H ?J1))))
(let (($x864764 (and ?O1 ?R1 (<= ?E 1.0) (>= ?E 1.0) (<= ?F ?K1) (>= ?F ?K1) (<= ?G ?W) (>= ?G ?W) (<= ?H ?J1) (>= ?H ?J1))))
(let (($x27416 (= ?L (= ?S1 0.0))))
(let (($x251537 (= ?U1 (ite ?T1 1.0 0.0))))
(let (($x183137 (= ?T (= ?V1 0.0))))
(let (($x508862 (= ?X (ite ?W1 1.0 0.0))))
(let (($x32383 (= ?G1 (not (<= ?O 1.0)))))
(let (($x762379 (= ?X1 (not (<= ?O 0.0)))))
(let (($x206450 (= ?Y1 (+ (~ 1.0) ?O))))
(let (($x361692 (= ?N1 (ite ?X1 ?Y1 ?O))))
(let (($x646406 (= ?Z1 (= ?W 0.0))))
(let (($x166180 (= ?A2 (= ?K1 0.0))))
(let (($x426833 (= ?Q1 (or ?A2 ?Z1))))
(let (($x278396 (and (|cp-rel-bb1.i.i| ?A ?B ?C ?D) $x426833 $x166180 $x646406 $x361692 $x206450 $x762379 $x32383 (= ?B1 (= ?B 0.0)) $x508862 (= ?W1 (= ?C 0.0)) $x183137 (= ?P (+ ?U1 ?D)) $x251537 (= ?T1 (not (<= 2.0 ?D))) $x27416 (or $x864764 $x585828) $x520422 $x29850 $x466071 $x536831 $x425273 $x512351 $x375785 $x854206 $x480377 $x266952 $x851349 $x32751 $x209115 $x356934 $x570320 $x395414 $x912063 $x276302 (= ?R1 (= ?A 0.0)))))
(=> $x278396 $x233770)))))))))))))))))))))))))))))))))))))))))
)
(assert (forall ((?A Real) (?B Real) (?C Real) (?D Real) (?E Bool) (?F Bool) (?G Bool) (?H Bool) (?I Bool) (?J Bool) (?K Real) (?L Real) (?M Bool) (?N Bool) (?O Bool) (?P Bool) (?Q Bool) (?R Bool) (?S Real) (?T Real) (?U Bool) (?V Bool) (?W Bool) (?X Bool) (?Y Bool) (?Z Bool) (?A1 Bool) (?B1 Bool) (?C1 Bool) (?D1 Bool) (?E1 Bool) (?F1 Real) (?G1 Real) (?H1 Bool) (?I1 Bool) (?J1 Real) (?K1 Bool) (?L1 Bool) (?M1 Bool) (?N1 Bool) (?O1 Real) (?P1 Bool) (?Q1 Real) (?R1 Real) (?S1 Bool) (?T1 Bool) (?U1 Real) (?V1 Bool) (?W1 Bool) )(let (($x276302 (or (not ?E) (and ?F ?G (not ?H)))))
(let (($x912063 (or (not ?E) ?G)))
(let (($x143756 (not ?I)))
(let (($x138716 (or $x143756 (and ?E ?J (<= ?K ?L) (>= ?K ?L)) (and ?F ?M ?H (<= ?K ?D) (>= ?K ?D)))))
(let (($x570320 (or $x143756 (and ?J (not ?M)) (and ?M (not ?J)))))
(let (($x356934 (or (not ?N) (and ?I ?O (not ?P)))))
(let (($x209115 (or (not ?N) ?O)))
(let (($x298787 (not ?Q)))
(let (($x137156 (or $x298787 (and ?N ?R (<= ?S ?T) (>= ?S ?T)) (and ?I ?U ?P (<= ?S ?C) (>= ?S ?C)))))
(let (($x851349 (or $x298787 (and ?R (not ?U)) (and ?U (not ?R)))))
(let (($x266952 (or (not ?V) (and ?Q ?W ?X))))
(let (($x480377 (or (not ?V) ?W)))
(let (($x854206 (or (not ?Y) (and ?Q ?Z (not ?X)))))
(let (($x375785 (or (not ?Y) ?Z)))
(let (($x512351 (or (not ?A1) (and ?V ?B1 (not ?C1)))))
(let (($x425273 (or (not ?A1) ?B1)))
(let (($x135867 (and ?Y ?I1 (<= ?F1 ?J1) (>= ?F1 ?J1) (<= ?G1 ?B) (>= ?G1 ?B))))
(let (($x386438 (>= ?F1 ?K)))
(let (($x420614 (<= ?F1 ?K)))
(let (($x177759 (not ?D1)))
(let (($x190833 (or $x177759 (and ?A1 ?E1 $x420614 $x386438 (<= ?G1 ?B) (>= ?G1 ?B)) (and ?V ?H1 ?C1 $x420614 $x386438 (<= ?G1 1.0) (>= ?G1 1.0)) $x135867)))
(let (($x466071 (or $x177759 (and ?E1 (not ?H1) (not ?I1)) (and ?H1 (not ?E1) (not ?I1)) (and ?I1 (not ?E1) (not ?H1)))))
(let (($x29850 (or (not ?K1) (and ?D1 ?L1 (not ?M1)))))
(let (($x520422 (or (not ?K1) ?L1)))
(let (($x27416 (= ?H (= ?O1 0.0))))
(let (($x251537 (= ?Q1 (ite ?P1 1.0 0.0))))
(let (($x183137 (= ?P (= ?R1 0.0))))
(let (($x508862 (= ?T (ite ?S1 1.0 0.0))))
(let (($x32383 (= ?C1 (not (<= ?K 1.0)))))
(let (($x762379 (= ?T1 (not (<= ?K 0.0)))))
(let (($x206450 (= ?U1 (+ (~ 1.0) ?K))))
(let (($x361692 (= ?J1 (ite ?T1 ?U1 ?K))))
(let (($x646406 (= ?V1 (= ?S 0.0))))
(let (($x166180 (= ?W1 (= ?G1 0.0))))
(let (($x426833 (= ?M1 (or ?W1 ?V1))))
(let (($x233770 (|cp-rel-bb1.i.i| ?A ?B ?C ?D)))
(let (($x133707 (and $x233770 $x426833 $x166180 $x646406 $x361692 $x206450 $x762379 $x32383 (= ?X (= ?B 0.0)) $x508862 (= ?S1 (= ?C 0.0)) $x183137 (= ?L (+ ?Q1 ?D)) $x251537 (= ?P1 (not (<= 2.0 ?D))) $x27416 (not (= ?N1 true)) (= ?K1 true) $x520422 $x29850 $x466071 $x190833 $x425273 $x512351 $x375785 $x854206 $x480377 $x266952 $x851349 $x137156 $x209115 $x356934 $x570320 $x138716 $x912063 $x276302 (= ?N1 (= ?A 0.0)))))
(=> $x133707 |cp-rel-bb2.i.i16.i.i|)))))))))))))))))))))))))))))))))))))))
)
(assert (not cp-rel-bb2.i.i16.i.i))
(check-sat)
